5 5
1 94 0 83 2 5 4 55 3 13
3 34 0 88 4 18 2 68 1 72
4 43 0 65 2 41 3 38 1 38
3 13 0 22 2 29 1 9 4 91
0 68 1 17 3 37 2 64 4 67
-1
0 2 5
0 2 4 5
0 1 3 4 5
0 4 5
0 4 5
-2
229 275
192 208 417
50 165 272 249
78 201
218 390

402 8
20 16 11 6 1
21 18 0 14 9
17 23 12 8 2
15 5 22 13 4
10 19 7 24 3
